% seed = 2522891

mint = 61;
% maxt = 213;

nActs = 42;
dur = [0,2,3,10,6,6,6,6,8,4,10,1,6,9,1,8,5,7,3,6,4,4,8,3,5,10,5,4,2,3,7,1,6,9,7,2,7,8,3,3,5,0];

nSkills = 4;
sreq = [| 0,0,0,0,
	| 0,6,6,0,
	| 3,1,0,0,
	| 5,0,0,4,
	| 5,0,0,2,
	| 3,0,3,0,
	| 3,0,0,4,
	| 5,3,0,0,
	| 0,4,5,0,
	| 3,0,0,2,
	| 2,0,4,0,
	| 0,2,6,0,
	| 0,0,3,5,
	| 5,0,0,2,
	| 0,0,4,4,
	| 0,4,5,0,
	| 2,4,0,0,
	| 4,0,0,5,
	| 3,0,5,0,
	| 5,0,3,0,
	| 0,3,0,5,
	| 7,0,0,7,
	| 0,0,4,3,
	| 4,0,0,2,
	| 0,1,0,3,
	| 0,2,1,0,
	| 0,7,0,6,
	| 5,0,0,4,
	| 0,0,3,3,
	| 4,0,3,0,
	| 0,4,5,0,
	| 7,0,3,0,
	| 0,0,5,5,
	| 1,7,0,0,
	| 2,0,6,0,
	| 2,0,6,0,
	| 7,0,0,6,
	| 4,3,0,0,
	| 5,0,1,0,
	| 0,4,0,5,
	| 6,5,0,0,
	| 0,0,0,0, |];

nResources = 25;
mastery = [| false,true,true,true,
	| false,false,false,true,
	| true,false,true,false,
	| true,true,false,true,
	| false,true,true,false,
	| true,false,false,false,
	| true,false,false,false,
	| false,true,false,false,
	| true,false,true,false,
	| true,true,false,true,
	| false,true,true,true,
	| true,false,false,false,
	| true,true,true,false,
	| false,true,false,false,
	| false,true,false,false,
	| true,true,false,false,
	| false,true,true,true,
	| true,true,true,false,
	| true,false,true,true,
	| false,true,true,true,
	| true,true,false,false,
	| false,false,false,true,
	| false,true,false,false,
	| true,false,true,false,
	| true,false,false,false, |];

nPrecs = 73;
pred = [1,1,1,2,3,3,4,4,4,5,5,6,6,6,7,7,8,8,9,9,10,10,10,11,12,13,13,13,14,14,14,15,16,16,16,17,18,19,19,20,20,21,22,22,22,23,23,24,24,25,26,26,26,27,27,27,28,29,29,30,31,31,32,32,33,34,35,36,37,38,39,40,41];
succ = [2,3,4,9,5,8,10,19,6,20,15,11,13,7,37,23,29,14,18,39,33,27,20,12,22,18,22,40,26,30,16,24,17,28,40,20,21,28,40,34,37,31,35,36,29,25,32,25,28,29,33,36,31,35,36,31,33,34,30,41,34,38,41,38,35,41,37,39,38,39,42,42,42];

nUnrels = 460;
unpred = [2,2,2,2,2,2,2,2,2,2,2,2,2,2,2,2,2,2,2,2,2,2,2,2,2,2,2,2,2,2,2,3,3,3,3,3,3,3,3,3,3,3,3,3,3,3,4,4,4,4,4,4,4,4,4,5,5,5,5,5,5,5,5,5,5,5,5,5,5,5,5,5,5,5,5,5,5,6,6,6,6,6,6,6,6,6,6,6,6,6,6,7,7,7,7,7,7,7,7,7,7,7,7,7,7,7,7,7,7,7,7,7,7,7,7,8,8,8,8,8,8,8,8,8,8,8,8,8,8,8,9,9,9,9,9,9,9,9,9,9,9,9,9,9,9,9,9,9,9,9,9,9,9,9,9,10,10,10,10,10,10,10,10,10,10,10,10,10,10,10,10,10,10,10,10,11,11,11,11,11,11,11,11,11,11,11,11,11,11,11,11,11,11,11,12,12,12,12,12,12,12,12,12,12,12,12,12,12,12,12,12,12,12,13,13,13,13,13,13,13,13,13,13,13,13,13,13,14,14,14,14,14,14,14,14,14,14,14,15,15,15,15,15,15,15,15,15,15,15,15,15,15,16,16,16,16,16,16,16,16,16,16,16,16,16,16,17,17,17,17,17,17,17,17,17,17,17,17,17,17,17,17,17,17,18,18,18,18,18,18,18,18,18,18,18,18,18,18,18,18,18,19,19,19,19,19,19,19,19,19,19,19,19,19,19,19,20,20,20,20,20,20,20,20,20,20,20,20,20,20,20,20,21,21,21,21,21,21,21,21,21,21,21,21,21,21,21,22,22,22,22,22,22,22,22,22,22,23,23,23,23,23,23,23,23,23,23,24,24,24,24,24,24,25,25,25,25,25,25,25,25,25,25,25,25,26,26,26,26,26,26,27,27,27,27,27,27,28,28,28,28,28,28,28,28,29,29,29,29,29,29,29,29,29,30,30,30,30,30,30,30,30,30,30,31,31,31,31,31,31,32,32,32,32,32,32,33,33,33,33,34,34,34,34,34,34,35,35,35,36,36,36,36,37,37,38,38,39,39,40];
unsucc = [3,4,5,6,7,8,10,11,12,13,14,15,16,17,19,20,22,23,24,25,26,27,28,29,30,32,33,35,36,37,40,4,6,7,9,10,11,12,13,18,19,21,22,23,27,32,5,8,9,14,15,16,17,24,26,6,7,8,9,10,11,12,13,14,16,17,18,19,21,22,23,26,27,31,32,36,40,8,9,10,14,15,16,17,19,20,24,26,27,28,33,8,9,10,11,12,13,14,15,16,17,18,19,20,21,22,24,26,27,28,31,33,35,36,40,9,10,11,12,13,15,18,19,21,22,23,24,25,27,32,10,11,12,13,14,15,16,17,19,20,22,23,24,25,26,27,28,29,30,32,33,35,36,37,40,11,12,13,14,15,16,17,18,19,21,22,23,24,25,26,28,29,30,32,40,13,14,15,16,17,18,19,20,21,23,24,25,26,27,28,31,32,33,40,13,14,15,16,17,18,19,20,21,23,24,25,26,27,28,31,32,33,40,14,15,16,17,19,20,23,24,25,26,27,28,32,33,15,18,19,21,22,23,24,25,27,29,32,16,17,18,19,20,21,22,23,26,27,31,32,36,40,18,19,21,22,23,24,25,26,27,29,30,31,32,36,18,19,21,22,23,24,25,26,27,28,29,30,31,32,33,35,36,40,19,20,22,23,24,25,26,27,28,29,30,32,33,35,36,37,40,20,21,22,23,24,25,26,27,29,30,31,32,34,36,41,21,22,23,24,25,26,27,28,29,30,31,32,33,35,36,40,22,23,24,25,26,27,28,29,30,32,33,35,36,37,40,23,24,25,26,27,28,31,32,33,40,24,26,27,28,31,33,35,36,37,40,26,27,31,32,36,40,26,27,28,31,32,33,35,36,37,38,39,40,27,28,29,30,32,40,28,29,30,32,33,40,29,30,31,32,34,36,40,41,31,32,33,35,36,37,38,39,40,31,32,33,34,35,36,37,38,39,40,32,33,35,36,37,40,33,34,35,36,37,40,34,36,40,41,35,36,37,38,39,40,36,40,41,37,38,40,41,40,41,40,41,40,41,41];

USEFUL_RES = [{},
	{1,3,4,5,8,9,10,11,13,14,15,16,17,18,19,20,21,23,24},
	{1,3,4,5,6,7,8,9,10,11,12,13,14,15,16,17,18,19,20,21,23,24,25},
	{1,2,3,4,6,7,9,10,11,12,13,16,17,18,19,20,21,22,24,25},
	{1,2,3,4,6,7,9,10,11,12,13,16,17,18,19,20,21,22,24,25},
	{1,3,4,5,6,7,9,10,11,12,13,16,17,18,19,20,21,24,25},
	{1,2,3,4,6,7,9,10,11,12,13,16,17,18,19,20,21,22,24,25},
	{1,3,4,5,6,7,8,9,10,11,12,13,14,15,16,17,18,19,20,21,23,24,25},
	{1,3,4,5,8,9,10,11,13,14,15,16,17,18,19,20,21,23,24},
	{1,2,3,4,6,7,9,10,11,12,13,16,17,18,19,20,21,22,24,25},
	{1,3,4,5,6,7,9,10,11,12,13,16,17,18,19,20,21,24,25},
	{1,3,4,5,8,9,10,11,13,14,15,16,17,18,19,20,21,23,24},
	{1,2,3,4,5,9,10,11,13,17,18,19,20,22,24},
	{1,2,3,4,6,7,9,10,11,12,13,16,17,18,19,20,21,22,24,25},
	{1,2,3,4,5,9,10,11,13,17,18,19,20,22,24},
	{1,3,4,5,8,9,10,11,13,14,15,16,17,18,19,20,21,23,24},
	{1,3,4,5,6,7,8,9,10,11,12,13,14,15,16,17,18,19,20,21,23,24,25},
	{1,2,3,4,6,7,9,10,11,12,13,16,17,18,19,20,21,22,24,25},
	{1,3,4,5,6,7,9,10,11,12,13,16,17,18,19,20,21,24,25},
	{1,3,4,5,6,7,9,10,11,12,13,16,17,18,19,20,21,24,25},
	{1,2,4,5,8,10,11,13,14,15,16,17,18,19,20,21,22,23},
	{1,2,3,4,6,7,9,10,11,12,13,16,17,18,19,20,21,22,24,25},
	{1,2,3,4,5,9,10,11,13,17,18,19,20,22,24},
	{1,2,3,4,6,7,9,10,11,12,13,16,17,18,19,20,21,22,24,25},
	{1,2,4,5,8,10,11,13,14,15,16,17,18,19,20,21,22,23},
	{1,3,4,5,8,9,10,11,13,14,15,16,17,18,19,20,21,23,24},
	{1,2,4,5,8,10,11,13,14,15,16,17,18,19,20,21,22,23},
	{1,2,3,4,6,7,9,10,11,12,13,16,17,18,19,20,21,22,24,25},
	{1,2,3,4,5,9,10,11,13,17,18,19,20,22,24},
	{1,3,4,5,6,7,9,10,11,12,13,16,17,18,19,20,21,24,25},
	{1,3,4,5,8,9,10,11,13,14,15,16,17,18,19,20,21,23,24},
	{1,3,4,5,6,7,9,10,11,12,13,16,17,18,19,20,21,24,25},
	{1,2,3,4,5,9,10,11,13,17,18,19,20,22,24},
	{1,3,4,5,6,7,8,9,10,11,12,13,14,15,16,17,18,19,20,21,23,24,25},
	{1,3,4,5,6,7,9,10,11,12,13,16,17,18,19,20,21,24,25},
	{1,3,4,5,6,7,9,10,11,12,13,16,17,18,19,20,21,24,25},
	{1,2,3,4,6,7,9,10,11,12,13,16,17,18,19,20,21,22,24,25},
	{1,3,4,5,6,7,8,9,10,11,12,13,14,15,16,17,18,19,20,21,23,24,25},
	{1,3,4,5,6,7,9,10,11,12,13,16,17,18,19,20,21,24,25},
	{1,2,4,5,8,10,11,13,14,15,16,17,18,19,20,21,22,23},
	{1,3,4,5,6,7,8,9,10,11,12,13,14,15,16,17,18,19,20,21,23,24,25},
	{}];

POTENTIAL_ACT = [{2,3,4,5,6,7,8,9,10,11,12,13,14,15,16,17,18,19,20,21,22,23,24,25,26,27,28,29,30,31,32,33,34,35,36,37,38,39,40,41},
	{4,5,7,10,13,14,15,18,21,22,23,24,25,27,28,29,33,37,40},
	{2,3,4,5,6,7,8,9,10,11,12,13,14,15,16,17,18,19,20,22,23,24,26,28,29,30,31,32,33,34,35,36,37,38,39,41},
	{2,3,4,5,6,7,8,9,10,11,12,13,14,15,16,17,18,19,20,21,22,23,24,25,26,27,28,29,30,31,32,33,34,35,36,37,38,39,40,41},
	{2,3,6,8,9,11,12,13,15,16,17,19,20,21,23,25,26,27,29,30,31,32,33,34,35,36,38,39,40,41},
	{3,4,5,6,7,8,10,11,14,17,18,19,20,22,24,28,30,32,34,35,36,37,38,39,41},
	{3,4,5,6,7,8,10,11,14,17,18,19,20,22,24,28,30,32,34,35,36,37,38,39,41},
	{2,3,8,9,12,16,17,21,25,26,27,31,34,38,40,41},
	{2,3,4,5,6,7,8,9,10,11,12,13,14,15,16,17,18,19,20,22,23,24,26,28,29,30,31,32,33,34,35,36,37,38,39,41},
	{2,3,4,5,6,7,8,9,10,11,12,13,14,15,16,17,18,19,20,21,22,23,24,25,26,27,28,29,30,31,32,33,34,35,36,37,38,39,40,41},
	{2,3,4,5,6,7,8,9,10,11,12,13,14,15,16,17,18,19,20,21,22,23,24,25,26,27,28,29,30,31,32,33,34,35,36,37,38,39,40,41},
	{3,4,5,6,7,8,10,11,14,17,18,19,20,22,24,28,30,32,34,35,36,37,38,39,41},
	{2,3,4,5,6,7,8,9,10,11,12,13,14,15,16,17,18,19,20,21,22,23,24,25,26,27,28,29,30,31,32,33,34,35,36,37,38,39,40,41},
	{2,3,8,9,12,16,17,21,25,26,27,31,34,38,40,41},
	{2,3,8,9,12,16,17,21,25,26,27,31,34,38,40,41},
	{2,3,4,5,6,7,8,9,10,11,12,14,16,17,18,19,20,21,22,24,25,26,27,28,30,31,32,34,35,36,37,38,39,40,41},
	{2,3,4,5,6,7,8,9,10,11,12,13,14,15,16,17,18,19,20,21,22,23,24,25,26,27,28,29,30,31,32,33,34,35,36,37,38,39,40,41},
	{2,3,4,5,6,7,8,9,10,11,12,13,14,15,16,17,18,19,20,21,22,23,24,25,26,27,28,29,30,31,32,33,34,35,36,37,38,39,40,41},
	{2,3,4,5,6,7,8,9,10,11,12,13,14,15,16,17,18,19,20,21,22,23,24,25,26,27,28,29,30,31,32,33,34,35,36,37,38,39,40,41},
	{2,3,4,5,6,7,8,9,10,11,12,13,14,15,16,17,18,19,20,21,22,23,24,25,26,27,28,29,30,31,32,33,34,35,36,37,38,39,40,41},
	{2,3,4,5,6,7,8,9,10,11,12,14,16,17,18,19,20,21,22,24,25,26,27,28,30,31,32,34,35,36,37,38,39,40,41},
	{4,5,7,10,13,14,15,18,21,22,23,24,25,27,28,29,33,37,40},
	{2,3,8,9,12,16,17,21,25,26,27,31,34,38,40,41},
	{2,3,4,5,6,7,8,9,10,11,12,13,14,15,16,17,18,19,20,22,23,24,26,28,29,30,31,32,33,34,35,36,37,38,39,41},
	{3,4,5,6,7,8,10,11,14,17,18,19,20,22,24,28,30,32,34,35,36,37,38,39,41}];
